100 8
680 780
624 888
901 819
481 780
421 315
528 738
536 856
842 523
704 131
414 770
866 369
521 325
312 410
161 504
489 486
585 333
618 895
837 253
224 435
882 583
429 773
745 434
281 237
79 844
757 519
468 231
804 900
281 476
728 811
827 341
314 496
884 302
747 963
917 595
227 488
394 506
778 559
577 758
706 686
602 641
857 379
373 603
590 195
315 338
611 257
727 885
434 695
661 789
877 803
248 301
845 577
456 769
818 310
883 832
422 741
741 908
926 239
563 767
631 700
634 599
391 737
136 461
606 648
970 833
29 892
54 751
506 236
853 332
22 765
306 638
781 265
932 563
804 124
883 714
136 821
582 838
872 608
305 402
664 777
796 513
664 156
475 402
572 543
803 634
824 151
854 748
484 863
835 413
698 690
625 727
227 348
820 314
919 838
815 375
424 379
824 941
891 534
224 385
426 822
344 383
